data/solutions/recovery/degenerate/intermediate/binding/degenerate_intermediate_instance23/27.sol
Elapsed time: 0.03
Upper bound: 234975082.0
Planning weighted value: 8.93454562163e+11
C[0]=234975082.0
C[1]=234495963.0
C[2]=234091989.0
C[3]=232812733.0
C[4]=228915159.0
C[5]=227270934.0
C[6]=225773744.0
C[7]=223013352.0
C[8]=215965400.0
C[9]=213678899.0
C[10]=211412645.0
C[11]=0.0
y[0]=8
y[1]=1
y[2]=4
y[3]=5
y[4]=3
y[5]=2
y[6]=9
y[7]=0
y[8]=8
y[9]=8
y[10]=8
y[11]=7
y[12]=1
y[13]=3
y[14]=6
y[15]=9
y[16]=6
y[17]=3
y[18]=2
y[19]=9
y[20]=0
y[21]=3
y[22]=6
y[23]=5
y[24]=7
y[25]=6
y[26]=7
y[27]=8
y[28]=0
y[29]=7
y[30]=5
y[31]=8
y[32]=2
y[33]=9
y[34]=9
y[35]=0
y[36]=7
y[37]=5
y[38]=6
y[39]=1
y[40]=8
y[41]=8
y[42]=5
y[43]=2
y[44]=3
y[45]=10
y[46]=7
y[47]=6
y[48]=4
y[49]=2
y[50]=1
y[51]=4
y[52]=2
y[53]=10
y[54]=5
y[55]=1
y[56]=10
y[57]=0
y[58]=1
y[59]=5
y[60]=10
y[61]=1
y[62]=4
y[63]=4
y[64]=3
y[65]=4
y[66]=8
y[67]=3
y[68]=10
y[69]=6
y[70]=4
y[71]=8
y[72]=2
y[73]=9
y[74]=1
y[75]=3
y[76]=1
y[77]=6
