data/solutions/recovery/degenerate/intermediate/binding/degenerate_intermediate_instance23/27.log

Log started (V12.6.3.0) Sun Apr 22 12:29:29 2018

New value for default parallel thread count: 1

Problem '/tmp/tmphtebEG.pyomo.lp' read.
Read time = 0.01 sec. (0.85 ticks)

Problem name         : /tmp/tmphtebEG.pyomo.lp
Objective sense      : Minimize
Variables            :     950  [Nneg: 1,  Binary: 936,  General Integer: 13]
Objective nonzeros   :       1
Linear constraints   :     182  [Less: 90,  Equal: 92]
  Nonzeros           :   61117
  RHS nonzeros       :      79

Variables            : Min LB: 0.000000         Max UB: 1.000000       
Objective nonzeros   : Min   : 1.000000         Max   : 1.000000       
Linear constraints   :
  Nonzeros           : Min   : 1.000000         Max   : 6.145599e+07   
  RHS nonzeros       : Min   : 1.000000         Max   : 1.000000       
Tried aggregator 1 time.
MIP Presolve eliminated 152 rows and 850 columns.
Reduced MIP has 30 rows, 100 columns, and 209 nonzeros.
Reduced MIP has 88 binaries, 12 generals, 0 SOSs, and 0 indicators.
Presolve time = 0.00 sec. (3.65 ticks)
Found incumbent of value 4.9411482e+08 after 0.01 sec. (5.15 ticks)
Probing time = 0.00 sec. (0.28 ticks)
Tried aggregator 1 time.
Reduced MIP has 30 rows, 100 columns, and 209 nonzeros.
Reduced MIP has 88 binaries, 12 generals, 0 SOSs, and 0 indicators.
Presolve time = 0.00 sec. (0.16 ticks)
Probing time = 0.00 sec. (0.27 ticks)
Clique table members: 8.
MIP emphasis: balance optimality and feasibility.
MIP search method: dynamic search.
Parallel mode: none, using 1 thread.
Root relaxation solution time = 0.00 sec. (0.20 ticks)

        Nodes                                         Cuts/
   Node  Left     Objective  IInf  Best Integer    Best Bound    ItCnt     Gap

*     0+    0                       4.94115e+08   2.34975e+08            52.45%
      0     0   2.34975e+08    10   4.94115e+08   2.34975e+08       51   52.45%
      0     0   2.34975e+08    12   4.94115e+08      Fract: 9      101   52.45%
*     0+    0                       2.34975e+08   2.34975e+08             0.00%
      0     0        cutoff         2.34975e+08   2.34975e+08      101    0.00%
Elapsed time = 0.01 sec. (7.23 ticks, tree = 0.01 MB, solutions = 2)

Gomory fractional cuts applied:  3

Root node processing (before b&c):
  Real time             =    0.01 sec. (7.27 ticks)
Sequential b&c:
  Real time             =    0.00 sec. (0.00 ticks)
                          ------------
Total (root+branch&cut) =    0.01 sec. (7.27 ticks)

Solution pool: 2 solutions saved.

MIP - Integer optimal solution:  Objective =  2.3497508200e+08
Solution time =    0.01 sec.  Iterations = 101  Nodes = 0
Deterministic time = 7.27 ticks  (828.27 ticks/sec)


Incumbent solution written to file '/tmp/tmpDuYrdz.cplex.sol'.
